p tw 20 73
1 16
1 18
1 20
1 3
1 4
1 5
1 7
1 9
2 11
2 12
2 13
2 14
2 20
2 3
2 5
2 6
2 8
2 9
2 10
14 18
3 12
3 13
3 14
3 17
3 20
3 4
3 5
3 7
3 9
4 12
4 13
4 14
4 17
4 5
4 6
4 7
4 8
5 11
5 12
5 14
5 15
5 18
5 19
5 9
6 11
6 13
6 14
6 17
6 18
6 19
6 20
6 9
6 10
7 12
7 14
7 15
7 18
7 20
7 8
7 9
7 10
8 14
8 10
9 13
9 14
9 15
9 18
9 20
10 11
10 13
10 14
10 15
10 16
